p cnf 11 50
2 7 -5 0
-2 4 -11 0
8 5 -7 0
-5 7 3 0
9 -10 6 0
11 -10 7 0
-1 8 10 0
7 5 6 0
8 11 -6 0
-2 3 -8 0
3 -10 4 0
-6 7 11 0
2 -3 -6 0
-3 -8 -6 0
-8 9 -7 0
-6 5 -7 0
11 -1 -8 0
3 11 4 0
3 -8 1 0
2 5 8 0
3 4 -7 0
1 -4 6 0
3 4 -6 0
-4 -9 3 0
-8 -7 -10 0
-6 -10 -4 0
-6 3 -10 0
-1 -4 -2 0
11 -9 -2 0
5 10 -4 0
4 6 2 0
-4 9 3 0
10 1 -7 0
-9 -7 -10 0
-5 -8 -9 0
1 7 10 0
9 1 10 0
6 -11 9 0
-9 -5 4 0
11 -2 4 0
8 -1 11 0
-1 6 8 0
10 6 4 0
-11 5 10 0
4 -8 -10 0
-10 -8 11 0
1 11 -3 0
11 1 8 0
-2 -4 1 0
-4 7 2 0
